9 500000000000023
0 55555555555583 55555555555649 55555555555645 55555555555648 55555555555571 55555555555636 55555555555636 55555555555564
55555555555583 0 55555555555562 55555555555578 55555555555617 55555555555651 55555555555596 55555555555642 55555555555613
55555555555649 55555555555562 0 55555555555560 55555555555604 55555555555626 55555555555641 55555555555558 55555555555619
55555555555645 55555555555578 55555555555560 0 55555555555602 55555555555639 55555555555618 55555555555648 55555555555615
55555555555648 55555555555617 55555555555604 55555555555602 0 55555555555561 55555555555565 55555555555622 55555555555636
55555555555571 55555555555651 55555555555626 55555555555639 55555555555561 0 55555555555640 55555555555593 55555555555619
55555555555636 55555555555596 55555555555641 55555555555618 55555555555565 55555555555640 0 55555555555604 55555555555557
55555555555636 55555555555642 55555555555558 55555555555648 55555555555622 55555555555593 55555555555604 0 55555555555628
55555555555564 55555555555613 55555555555619 55555555555615 55555555555636 55555555555619 55555555555557 55555555555628 0
